DIMENSION: 9
EDGE_WEIGHT_TYPE: EXPLICIT
EDGE_WEIGHT_FORMAT: FULL_MATRIX
EDGE_WEIGHT_SECTION:
32767 32767 31 77 57 19 39 32767 89 
32767 32767 22 51 32767 81 32767 32767 52 
31 22 32767 35 96 47 32767 77 12 
77 51 35 32767 91 51 47 32767 35 
57 32767 96 91 32767 47 11 20 32767 
19 81 47 51 47 32767 6 55 90 
39 32767 32767 47 11 6 32767 20 8 
32767 32767 77 32767 20 55 20 32767 89 
89 52 12 35 32767 90 8 89 32767 
EOF